15
0 556 113 594 214 667 935 852 251 216 720 677 247 828 310 
556 0 574 330 166 718 978 388 915 858 2 926 898 158 219 
113 574 0 939 880 539 834 376 964 939 748 23 547 708 991 
594 330 939 0 450 782 753 93 854 90 989 50 717 169 201 
214 166 880 450 0 379 113 919 871 105 6 264 704 143 343 
667 718 539 782 379 0 112 84 8 492 91 504 245 283 566 
935 978 834 753 113 112 0 221 950 52 837 606 806 753 15 
852 388 376 93 919 84 221 0 393 212 773 71 826 239 116 
251 915 964 854 871 8 950 393 0 980 357 393 572 891 539 
216 858 939 90 105 492 52 212 980 0 288 819 835 118 281 
720 2 748 989 6 91 837 773 357 288 0 129 425 144 109 
677 926 23 50 264 504 606 71 393 819 129 0 647 557 793 
247 898 547 717 704 245 806 826 572 835 425 647 0 657 320 
828 158 708 169 143 283 753 239 891 118 144 557 657 0 405 
310 219 991 201 343 566 15 116 539 281 109 793 320 405 0 
